
# PYTHONPATH must include directory above plugin directory.
#     Define either externally or here, then import plugin.
sys.path.insert(0, './..')
import my_ccsd

molecule {
O
H 1 R
H 1 R 2 A

R = 1.1
A = 104.0

symmetry c1
}

set {
  basis sto-3g
  scf_type pk
}

set my_ccsd {
  print 1
}

energy('my_ccsd')

